15
3 2 6
4 1 9
4 2 1
4 3 8
5 1 6
5 4 3
6 0 8
6 1 7
6 2 5
6 5 5
7 1 1
7 5 1
7 6 6
8 0 7
8 1 4
8 2 5
8 3 10
8 5 7
8 6 7
8 7 2
9 7 5
9 8 3
10 0 7
10 3 10
10 5 3
10 6 5
10 9 2
11 1 6
11 6 7
11 9 3
11 10 3
12 1 4
12 2 10
12 3 3
12 4 8
12 5 6
12 8 5
12 11 2
13 0 9
13 1 5
13 2 9
13 3 3
13 4 1
13 5 10
13 7 2
13 8 1
14 0 6
14 4 7
14 5 10
14 8 6
14 11 6
